13
1 6
2 5
3 3
4 1
5 5
6 10
7 6
8 4
9 3
10 5
11 8
12 3
38
0 1 78
1 0 78
0 2 15
2 0 15
0 3 50
3 0 50
0 4 91
4 0 91
0 5 10
5 0 10
0 6 45
6 0 45
0 7 91
7 0 91
0 8 11
8 0 11
0 9 7
9 0 7
0 10 24
10 0 24
0 11 43
11 0 43
0 12 22
12 0 22
1 8 93
1 10 75
2 3 95
2 4 75
3 5 77
3 7 79
3 9 96
3 10 81
4 6 80
7 9 12
8 10 24
9 10 70
9 12 90
10 11 65
